NAME : portcgen-10-40
COMMENT : portcgen N=10, seed=40
TYPE : TSP
DIMENSION : 10
EDGE_WEIGHT_TYPE : EUC_2D
NODE_COORD_SECTION
1 69 99
2 70 125
3 72 95
4 104 97
5 93 107
6 93 84
7 77 105
8 54 81
9 103 118
10 96 82
